\Problem name: ofsub9.lp
\ILP for trying to color the edges of an overfull graph on 9 nodes with 7 
\colors.
\Infeasible problem.


Minimize
obj:  x0 + x1 + x2 + x3 + x4 + x5 + x6 + x7 + x8 + x9
 + x10 + x11 + x12 + x13 + x14 + x15 + x16 + x17 + x18 + x19
 + x20 + x21 + x22 + x23 + x24 + x25 + x26 + x27 + x28 + x29
 + x30 + x31 + x32 + x33 + x34 + x35 + x36 + x37 + x38 + x39
 + x40 + x41 + x42 + x43 + x44 + x45 + x46 + x47 + x48 + x49
 + x50 + x51 + x52 + x53 + x54 + x55 + x56 + x57 + x58 + x59
 + x60 + x61 + x62 + x63 + x64 + x65 + x66 + x67 + x68 + x69
 + x70 + x71 + x72 + x73 + x74 + x75 + x76 + x77 + x78 + x79
 + x80 + x81 + x82 + x83 + x84 + x85 + x86 + x87 + x88 + x89
 + x90 + x91 + x92 + x93 + x94 + x95 + x96 + x97 + x98 + x99
 + x100 + x101 + x102 + x103 + x104 + x105 + x106 + x107 + x108 + x109
 + x110 + x111 + x112 + x113 + x114 + x115 + x116 + x117 + x118 + x119
 + x120 + x121 + x122 + x123 + x124 + x125 + x126 + x127 + x128 + x129
 + x130 + x131 + x132 + x133 + x134 + x135 + x136 + x137 + x138 + x139
 + x140 + x141 + x142 + x143 + x144 + x145 + x146 + x147 + x148 + x149
 + x150 + x151 + x152 + x153 + x154 + x155 + x156 + x157 + x158 + x159
 + x160 + x161 + x162 + x163 + x164 + x165 + x166 + x167 + x168 + x169
 + x170 + x171 + x172 + x173 + x174 + x175 + x176 + x177 + x178 + x179
 + x180 + x181 + x182 + x183 + x184 + x185 + x186 + x187 + x188 + x189
 + x190 + x191 + x192 + x193 + x194 + x195 + x196 + x197 + x198 + x199
 + x200 + x201 + x202
Subject To
c0:  x0 + x7 + x14 + x21 + x28 + x35 + x42 <= 1
c1:  x1 + x8 + x15 + x22 + x29 + x36 + x43 <= 1
c2:  x2 + x9 + x16 + x23 + x30 + x37 + x44 <= 1
c3:  x3 + x10 + x17 + x24 + x31 + x38 + x45 <= 1
c4:  x4 + x11 + x18 + x25 + x32 + x39 + x46 <= 1
c5:  x5 + x12 + x19 + x26 + x33 + x40 + x47 <= 1
c6:  x6 + x13 + x20 + x27 + x34 + x41 + x48 <= 1
c7:  x49 + x56 + x63 + x70 + x77 + x84 <= 1
c8:  x50 + x57 + x64 + x71 + x78 + x85 <= 1
c9:  x51 + x58 + x65 + x72 + x79 + x86 <= 1
c10:  x52 + x59 + x66 + x73 + x80 + x87 <= 1
c11:  x53 + x60 + x67 + x74 + x81 + x88 <= 1
c12:  x54 + x61 + x68 + x75 + x82 + x89 <= 1
c13:  x55 + x62 + x69 + x76 + x83 + x90 <= 1
c14:  x0 + x49 + x91 + x98 + x105 + x112 + x119 <= 1
c15:  x1 + x50 + x92 + x99 + x106 + x113 + x120 <= 1
c16:  x2 + x51 + x93 + x100 + x107 + x114 + x121 <= 1
c17:  x3 + x52 + x94 + x101 + x108 + x115 + x122 <= 1
c18:  x4 + x53 + x95 + x102 + x109 + x116 + x123 <= 1
c19:  x5 + x54 + x96 + x103 + x110 + x117 + x124 <= 1
c20:  x6 + x55 + x97 + x104 + x111 + x118 + x125 <= 1
c21:  x7 + x56 + x91 + x126 + x133 + x140 + x147 <= 1
c22:  x8 + x57 + x92 + x127 + x134 + x141 + x148 <= 1
c23:  x9 + x58 + x93 + x128 + x135 + x142 + x149 <= 1
c24:  x10 + x59 + x94 + x129 + x136 + x143 + x150 <= 1
c25:  x11 + x60 + x95 + x130 + x137 + x144 + x151 <= 1
c26:  x12 + x61 + x96 + x131 + x138 + x145 + x152 <= 1
c27:  x13 + x62 + x97 + x132 + x139 + x146 + x153 <= 1
c28:  x14 + x63 + x126 + x154 + x161 + x168 + x175 <= 1
c29:  x15 + x64 + x127 + x155 + x162 + x169 + x176 <= 1
c30:  x16 + x65 + x128 + x156 + x163 + x170 + x177 <= 1
c31:  x17 + x66 + x129 + x157 + x164 + x171 + x178 <= 1
c32:  x18 + x67 + x130 + x158 + x165 + x172 + x179 <= 1
c33:  x19 + x68 + x131 + x159 + x166 + x173 + x180 <= 1
c34:  x20 + x69 + x132 + x160 + x167 + x174 + x181 <= 1
c35:  x21 + x98 + x133 + x154 + x182 <= 1
c36:  x22 + x99 + x134 + x155 + x183 <= 1
c37:  x23 + x100 + x135 + x156 + x184 <= 1
c38:  x24 + x101 + x136 + x157 + x185 <= 1
c39:  x25 + x102 + x137 + x158 + x186 <= 1
c40:  x26 + x103 + x138 + x159 + x187 <= 1
c41:  x27 + x104 + x139 + x160 + x188 <= 1
c42:  x28 + x70 + x105 + x161 + x189 + x196 <= 1
c43:  x29 + x71 + x106 + x162 + x190 + x197 <= 1
c44:  x30 + x72 + x107 + x163 + x191 + x198 <= 1
c45:  x31 + x73 + x108 + x164 + x192 + x199 <= 1
c46:  x32 + x74 + x109 + x165 + x193 + x200 <= 1
c47:  x33 + x75 + x110 + x166 + x194 + x201 <= 1
c48:  x34 + x76 + x111 + x167 + x195 + x202 <= 1
c49:  x35 + x77 + x112 + x140 + x168 + x189 <= 1
c50:  x36 + x78 + x113 + x141 + x169 + x190 <= 1
c51:  x37 + x79 + x114 + x142 + x170 + x191 <= 1
c52:  x38 + x80 + x115 + x143 + x171 + x192 <= 1
c53:  x39 + x81 + x116 + x144 + x172 + x193 <= 1
c54:  x40 + x82 + x117 + x145 + x173 + x194 <= 1
c55:  x41 + x83 + x118 + x146 + x174 + x195 <= 1
c56:  x42 + x84 + x119 + x147 + x175 + x182 + x196 <= 1
c57:  x43 + x85 + x120 + x148 + x176 + x183 + x197 <= 1
c58:  x44 + x86 + x121 + x149 + x177 + x184 + x198 <= 1
c59:  x45 + x87 + x122 + x150 + x178 + x185 + x199 <= 1
c60:  x46 + x88 + x123 + x151 + x179 + x186 + x200 <= 1
c61:  x47 + x89 + x124 + x152 + x180 + x187 + x201 <= 1
c62:  x48 + x90 + x125 + x153 + x181 + x188 + x202 <= 1
c63:  x0 + x1 + x2 + x3 + x4 + x5 + x6 = 1
c64:  x7 + x8 + x9 + x10 + x11 + x12 + x13 = 1
c65:  x14 + x15 + x16 + x17 + x18 + x19 + x20 = 1
c66:  x21 + x22 + x23 + x24 + x25 + x26 + x27 = 1
c67:  x28 + x29 + x30 + x31 + x32 + x33 + x34 = 1
c68:  x35 + x36 + x37 + x38 + x39 + x40 + x41 = 1
c69:  x42 + x43 + x44 + x45 + x46 + x47 + x48 = 1
c70:  x49 + x50 + x51 + x52 + x53 + x54 + x55 = 1
c71:  x56 + x57 + x58 + x59 + x60 + x61 + x62 = 1
c72:  x63 + x64 + x65 + x66 + x67 + x68 + x69 = 1
c73:  x70 + x71 + x72 + x73 + x74 + x75 + x76 = 1
c74:  x77 + x78 + x79 + x80 + x81 + x82 + x83 = 1
c75:  x84 + x85 + x86 + x87 + x88 + x89 + x90 = 1
c76:  x91 + x92 + x93 + x94 + x95 + x96 + x97 = 1
c77:  x98 + x99 + x100 + x101 + x102 + x103 + x104 = 1
c78:  x105 + x106 + x107 + x108 + x109 + x110 + x111 = 1
c79:  x112 + x113 + x114 + x115 + x116 + x117 + x118 = 1
c80:  x119 + x120 + x121 + x122 + x123 + x124 + x125 = 1
c81:  x126 + x127 + x128 + x129 + x130 + x131 + x132 = 1
c82:  x133 + x134 + x135 + x136 + x137 + x138 + x139 = 1
c83:  x140 + x141 + x142 + x143 + x144 + x145 + x146 = 1
c84:  x147 + x148 + x149 + x150 + x151 + x152 + x153 = 1
c85:  x154 + x155 + x156 + x157 + x158 + x159 + x160 = 1
c86:  x161 + x162 + x163 + x164 + x165 + x166 + x167 = 1
c87:  x168 + x169 + x170 + x171 + x172 + x173 + x174 = 1
c88:  x175 + x176 + x177 + x178 + x179 + x180 + x181 = 1
c89:  x182 + x183 + x184 + x185 + x186 + x187 + x188 = 1
c90:  x189 + x190 + x191 + x192 + x193 + x194 + x195 = 1
c91:  x196 + x197 + x198 + x199 + x200 + x201 + x202 = 1
Bounds
 0 <= x0 <= 1
 0 <= x1 <= 1
 0 <= x2 <= 1
 0 <= x3 <= 1
 0 <= x4 <= 1
 0 <= x5 <= 1
 0 <= x6 <= 1
 0 <= x7 <= 1
 0 <= x8 <= 1
 0 <= x9 <= 1
 0 <= x10 <= 1
 0 <= x11 <= 1
 0 <= x12 <= 1
 0 <= x13 <= 1
 0 <= x14 <= 1
 0 <= x15 <= 1
 0 <= x16 <= 1
 0 <= x17 <= 1
 0 <= x18 <= 1
 0 <= x19 <= 1
 0 <= x20 <= 1
 0 <= x21 <= 1
 0 <= x22 <= 1
 0 <= x23 <= 1
 0 <= x24 <= 1
 0 <= x25 <= 1
 0 <= x26 <= 1
 0 <= x27 <= 1
 0 <= x28 <= 1
 0 <= x29 <= 1
 0 <= x30 <= 1
 0 <= x31 <= 1
 0 <= x32 <= 1
 0 <= x33 <= 1
 0 <= x34 <= 1
 0 <= x35 <= 1
 0 <= x36 <= 1
 0 <= x37 <= 1
 0 <= x38 <= 1
 0 <= x39 <= 1
 0 <= x40 <= 1
 0 <= x41 <= 1
 0 <= x42 <= 1
 0 <= x43 <= 1
 0 <= x44 <= 1
 0 <= x45 <= 1
 0 <= x46 <= 1
 0 <= x47 <= 1
 0 <= x48 <= 1
 0 <= x49 <= 1
 0 <= x50 <= 1
 0 <= x51 <= 1
 0 <= x52 <= 1
 0 <= x53 <= 1
 0 <= x54 <= 1
 0 <= x55 <= 1
 0 <= x56 <= 1
 0 <= x57 <= 1
 0 <= x58 <= 1
 0 <= x59 <= 1
 0 <= x60 <= 1
 0 <= x61 <= 1
 0 <= x62 <= 1
 0 <= x63 <= 1
 0 <= x64 <= 1
 0 <= x65 <= 1
 0 <= x66 <= 1
 0 <= x67 <= 1
 0 <= x68 <= 1
 0 <= x69 <= 1
 0 <= x70 <= 1
 0 <= x71 <= 1
 0 <= x72 <= 1
 0 <= x73 <= 1
 0 <= x74 <= 1
 0 <= x75 <= 1
 0 <= x76 <= 1
 0 <= x77 <= 1
 0 <= x78 <= 1
 0 <= x79 <= 1
 0 <= x80 <= 1
 0 <= x81 <= 1
 0 <= x82 <= 1
 0 <= x83 <= 1
 0 <= x84 <= 1
 0 <= x85 <= 1
 0 <= x86 <= 1
 0 <= x87 <= 1
 0 <= x88 <= 1
 0 <= x89 <= 1
 0 <= x90 <= 1
 0 <= x91 <= 1
 0 <= x92 <= 1
 0 <= x93 <= 1
 0 <= x94 <= 1
 0 <= x95 <= 1
 0 <= x96 <= 1
 0 <= x97 <= 1
 0 <= x98 <= 1
 0 <= x99 <= 1
 0 <= x100 <= 1
 0 <= x101 <= 1
 0 <= x102 <= 1
 0 <= x103 <= 1
 0 <= x104 <= 1
 0 <= x105 <= 1
 0 <= x106 <= 1
 0 <= x107 <= 1
 0 <= x108 <= 1
 0 <= x109 <= 1
 0 <= x110 <= 1
 0 <= x111 <= 1
 0 <= x112 <= 1
 0 <= x113 <= 1
 0 <= x114 <= 1
 0 <= x115 <= 1
 0 <= x116 <= 1
 0 <= x117 <= 1
 0 <= x118 <= 1
 0 <= x119 <= 1
 0 <= x120 <= 1
 0 <= x121 <= 1
 0 <= x122 <= 1
 0 <= x123 <= 1
 0 <= x124 <= 1
 0 <= x125 <= 1
 0 <= x126 <= 1
 0 <= x127 <= 1
 0 <= x128 <= 1
 0 <= x129 <= 1
 0 <= x130 <= 1
 0 <= x131 <= 1
 0 <= x132 <= 1
 0 <= x133 <= 1
 0 <= x134 <= 1
 0 <= x135 <= 1
 0 <= x136 <= 1
 0 <= x137 <= 1
 0 <= x138 <= 1
 0 <= x139 <= 1
 0 <= x140 <= 1
 0 <= x141 <= 1
 0 <= x142 <= 1
 0 <= x143 <= 1
 0 <= x144 <= 1
 0 <= x145 <= 1
 0 <= x146 <= 1
 0 <= x147 <= 1
 0 <= x148 <= 1
 0 <= x149 <= 1
 0 <= x150 <= 1
 0 <= x151 <= 1
 0 <= x152 <= 1
 0 <= x153 <= 1
 0 <= x154 <= 1
 0 <= x155 <= 1
 0 <= x156 <= 1
 0 <= x157 <= 1
 0 <= x158 <= 1
 0 <= x159 <= 1
 0 <= x160 <= 1
 0 <= x161 <= 1
 0 <= x162 <= 1
 0 <= x163 <= 1
 0 <= x164 <= 1
 0 <= x165 <= 1
 0 <= x166 <= 1
 0 <= x167 <= 1
 0 <= x168 <= 1
 0 <= x169 <= 1
 0 <= x170 <= 1
 0 <= x171 <= 1
 0 <= x172 <= 1
 0 <= x173 <= 1
 0 <= x174 <= 1
 0 <= x175 <= 1
 0 <= x176 <= 1
 0 <= x177 <= 1
 0 <= x178 <= 1
 0 <= x179 <= 1
 0 <= x180 <= 1
 0 <= x181 <= 1
 0 <= x182 <= 1
 0 <= x183 <= 1
 0 <= x184 <= 1
 0 <= x185 <= 1
 0 <= x186 <= 1
 0 <= x187 <= 1
 0 <= x188 <= 1
 0 <= x189 <= 1
 0 <= x190 <= 1
 0 <= x191 <= 1
 0 <= x192 <= 1
 0 <= x193 <= 1
 0 <= x194 <= 1
 0 <= x195 <= 1
 0 <= x196 <= 1
 0 <= x197 <= 1
 0 <= x198 <= 1
 0 <= x199 <= 1
 0 <= x200 <= 1
 0 <= x201 <= 1
 0 <= x202 <= 1
Integers
x0 x1 x2 x3 x4 x5 x6 x7 x8 x9 
x10 x11 x12 x13 x14 x15 x16 x17 x18 x19 
x20 x21 x22 x23 x24 x25 x26 x27 x28 x29 
x30 x31 x32 x33 x34 x35 x36 x37 x38 x39 
x40 x41 x42 x43 x44 x45 x46 x47 x48 x49 
x50 x51 x52 x53 x54 x55 x56 x57 x58 x59 
x60 x61 x62 x63 x64 x65 x66 x67 x68 x69 
x70 x71 x72 x73 x74 x75 x76 x77 x78 x79 
x80 x81 x82 x83 x84 x85 x86 x87 x88 x89 
x90 x91 x92 x93 x94 x95 x96 x97 x98 x99 
x100 x101 x102 x103 x104 x105 x106 x107 x108 x109 
x110 x111 x112 x113 x114 x115 x116 x117 x118 x119 
x120 x121 x122 x123 x124 x125 x126 x127 x128 x129 
x130 x131 x132 x133 x134 x135 x136 x137 x138 x139 
x140 x141 x142 x143 x144 x145 x146 x147 x148 x149 
x150 x151 x152 x153 x154 x155 x156 x157 x158 x159 
x160 x161 x162 x163 x164 x165 x166 x167 x168 x169 
x170 x171 x172 x173 x174 x175 x176 x177 x178 x179 
x180 x181 x182 x183 x184 x185 x186 x187 x188 x189 
x190 x191 x192 x193 x194 x195 x196 x197 x198 x199 
x200 x201 x202 
End
